min: c;

c = 4.45561746062246 * u3_t10_h0 + 3.51027241815015 * u3_t10_h1 + 3.03810039254964 * u3_t4_h2 + 3.03810039254964 * u3_t10_h2 + 2.96401446115605 * u3_t4_h3 + 2.96401446115605 * u3_t10_h3 + 3.56435134228762 * u3_t4_h4 + 3.56435134228762 * u3_t10_h4 + 3.90570031817197 * u3_t4_h5 + 3.90570031817197 * u3_t10_h5 + 3.94496280764973 * u3_t4_h6 + 3.94496280764973 * u3_t10_h6 + 4.41371880016406 * u3_t4_h7 + 4.41371880016406 * u3_t9_h7 + 4.41371880016406 * u3_t10_h7 + 5.25072364470154 * u3_t4_h8 + 5.25072364470154 * u3_t9_h8 + 4.80538001913112 * u3_t4_h9 + 4.80538001913112 * u3_t9_h9 + 5.65363694489972 * u3_t4_h10 + 5.65363694489972 * u3_t6_h10 + 5.65363694489972 * u3_t9_h10 + 4.02525276696594 * u3_t3_h11 + 4.02525276696594 * u3_t4_h11 + 4.02525276696594 * u3_t6_h11 + 4.02525276696594 * u3_t9_h11 + 6.56005863858866 * u3_t3_h12 + 6.56005863858866 * u3_t4_h12 + 6.56005863858866 * u3_t6_h12 + 6.56005863858866 * u3_t9_h12 + 4.06930486469513 * u3_t3_h13 + 4.06930486469513 * u3_t4_h13 + 4.06930486469513 * u3_t5_h13 + 4.06930486469513 * u3_t6_h13 + 4.06930486469513 * u3_t9_h13 + 5.84421507283807 * u3_t3_h14 + 5.84421507283807 * u3_t4_h14 + 5.84421507283807 * u3_t5_h14 + 5.84421507283807 * u3_t6_h14 + 5.84421507283807 * u3_t9_h14 + 6.06226429657942 * u3_t2_h15 + 6.06226429657942 * u3_t3_h15 + 6.06226429657942 * u3_t4_h15 + 6.06226429657942 * u3_t5_h15 + 6.06226429657942 * u3_t6_h15 + 6.06226429657942 * u3_t9_h15 + 5.65812153643335 * u3_t2_h16 + 5.65812153643335 * u3_t4_h16 + 5.65812153643335 * u3_t5_h16 + 5.65812153643335 * u3_t6_h16 + 5.65812153643335 * u3_t9_h16 + 6.66731117626041 * u3_t2_h17 + 6.66731117626041 * u3_t4_h17 + 6.66731117626041 * u3_t6_h17 + 6.66731117626041 * u3_t9_h17 + 6.14461568006626 * u3_t2_h18 + 6.14461568006626 * u3_t6_h18 + 6.14461568006626 * u3_t9_h18 + 5.22742085817324 * u3_t2_h19 + 5.22742085817324 * u3_t9_h19 + 5.29413514377261 * u3_t1_h20 + 5.29413514377261 * u3_t2_h20 + 5.29413514377261 * u3_t8_h20 + 5.29413514377261 * u3_t9_h20 + 5.57752776441896 * u3_t1_h21 + 5.57752776441896 * u3_t2_h21 + 5.57752776441896 * u3_t7_h21 + 5.57752776441896 * u3_t8_h21 + 5.57752776441896 * u3_t9_h21 + 5.25150746395772 * u3_t1_h22 + 5.25150746395772 * u3_t7_h22 + 5.25150746395772 * u3_t8_h22 + 5.90280059559634 * u3_t1_h23 + 5.90280059559634 * u3_t7_h23 + 5.90280059559634 * u3_t8_h23;
0 <= u3_t1_h20 <= 1;
0 <= u3_t1_h21 <= 1;
0 <= u3_t1_h22 <= 1;
0 <= u3_t1_h23 <= 1;
u3_t1_h20 + u3_t1_h21 + u3_t1_h22 + u3_t1_h23 = 2;
0 <= u3_t2_h15 <= 1;
0 <= u3_t2_h16 <= 1;
0 <= u3_t2_h17 <= 1;
0 <= u3_t2_h18 <= 1;
0 <= u3_t2_h19 <= 1;
0 <= u3_t2_h20 <= 1;
0 <= u3_t2_h21 <= 1;
u3_t2_h15 + u3_t2_h16 + u3_t2_h17 + u3_t2_h18 + u3_t2_h19 + u3_t2_h20 + u3_t2_h21 = 3;
0 <= u3_t3_h11 <= 1;
0 <= u3_t3_h12 <= 1;
0 <= u3_t3_h13 <= 1;
0 <= u3_t3_h14 <= 1;
0 <= u3_t3_h15 <= 1;
u3_t3_h11 + u3_t3_h12 + u3_t3_h13 + u3_t3_h14 + u3_t3_h15 = 2;
0 <= u3_t4_h2 <= 1;
0 <= u3_t4_h3 <= 1;
0 <= u3_t4_h4 <= 1;
0 <= u3_t4_h5 <= 1;
0 <= u3_t4_h6 <= 1;
0 <= u3_t4_h7 <= 1;
0 <= u3_t4_h8 <= 1;
0 <= u3_t4_h9 <= 1;
0 <= u3_t4_h10 <= 1;
0 <= u3_t4_h11 <= 1;
0 <= u3_t4_h12 <= 1;
0 <= u3_t4_h13 <= 1;
0 <= u3_t4_h14 <= 1;
0 <= u3_t4_h15 <= 1;
0 <= u3_t4_h16 <= 1;
0 <= u3_t4_h17 <= 1;
u3_t4_h2 + u3_t4_h3 + u3_t4_h4 + u3_t4_h5 + u3_t4_h6 + u3_t4_h7 + u3_t4_h8 + u3_t4_h9 + u3_t4_h10 + u3_t4_h11 + u3_t4_h12 + u3_t4_h13 + u3_t4_h14 + u3_t4_h15 + u3_t4_h16 + u3_t4_h17 = 3;
0 <= u3_t5_h13 <= 1;
0 <= u3_t5_h14 <= 1;
0 <= u3_t5_h15 <= 1;
0 <= u3_t5_h16 <= 1;
u3_t5_h13 + u3_t5_h14 + u3_t5_h15 + u3_t5_h16 = 2;
0 <= u3_t6_h10 <= 1;
0 <= u3_t6_h11 <= 1;
0 <= u3_t6_h12 <= 1;
0 <= u3_t6_h13 <= 1;
0 <= u3_t6_h14 <= 1;
0 <= u3_t6_h15 <= 1;
0 <= u3_t6_h16 <= 1;
0 <= u3_t6_h17 <= 1;
0 <= u3_t6_h18 <= 1;
u3_t6_h10 + u3_t6_h11 + u3_t6_h12 + u3_t6_h13 + u3_t6_h14 + u3_t6_h15 + u3_t6_h16 + u3_t6_h17 + u3_t6_h18 = 2;
0 <= u3_t7_h21 <= 1;
0 <= u3_t7_h22 <= 1;
0 <= u3_t7_h23 <= 1;
u3_t7_h21 + u3_t7_h22 + u3_t7_h23 = 2;
0 <= u3_t8_h20 <= 1;
0 <= u3_t8_h21 <= 1;
0 <= u3_t8_h22 <= 1;
0 <= u3_t8_h23 <= 1;
u3_t8_h20 + u3_t8_h21 + u3_t8_h22 + u3_t8_h23 = 1;
0 <= u3_t9_h7 <= 1;
0 <= u3_t9_h8 <= 1;
0 <= u3_t9_h9 <= 1;
0 <= u3_t9_h10 <= 1;
0 <= u3_t9_h11 <= 1;
0 <= u3_t9_h12 <= 1;
0 <= u3_t9_h13 <= 1;
0 <= u3_t9_h14 <= 1;
0 <= u3_t9_h15 <= 1;
0 <= u3_t9_h16 <= 1;
0 <= u3_t9_h17 <= 1;
0 <= u3_t9_h18 <= 1;
0 <= u3_t9_h19 <= 1;
0 <= u3_t9_h20 <= 1;
0 <= u3_t9_h21 <= 1;
u3_t9_h7 + u3_t9_h8 + u3_t9_h9 + u3_t9_h10 + u3_t9_h11 + u3_t9_h12 + u3_t9_h13 + u3_t9_h14 + u3_t9_h15 + u3_t9_h16 + u3_t9_h17 + u3_t9_h18 + u3_t9_h19 + u3_t9_h20 + u3_t9_h21 = 2;
0 <= u3_t10_h0 <= 1;
0 <= u3_t10_h1 <= 1;
0 <= u3_t10_h2 <= 1;
0 <= u3_t10_h3 <= 1;
0 <= u3_t10_h4 <= 1;
0 <= u3_t10_h5 <= 1;
0 <= u3_t10_h6 <= 1;
0 <= u3_t10_h7 <= 1;
u3_t10_h0 + u3_t10_h1 + u3_t10_h2 + u3_t10_h3 + u3_t10_h4 + u3_t10_h5 + u3_t10_h6 + u3_t10_h7 = 3;
